c cksystemsgroup.github.io/unicorn
c CNF contains a total of 436 clauses.
c CNF contains a total of 219 variables.
c CNF clauses cover 1 bad states.
c Variable name mapping (66 names):
c   1: input[bit=0]
c   2: input[bit=0]
c   4: input[bit=0]
c   8: input[bit=1]
c   10: input[bit=1]
c   14: input[bit=2]
c   16: input[bit=2]
c   20: input[bit=3]
c   22: input[bit=3]
c   27: input[bit=4]
c   29: input[bit=4]
c   33: input[bit=5]
c   35: input[bit=5]
c   39: input[bit=6]
c   41: input[bit=6]
c   45: input[bit=7]
c   47: input[bit=7]
c   52: input[bit=8]
c   54: input[bit=8]
c   59: input[bit=9]
c   61: input[bit=9]
c   66: input[bit=10]
c   68: input[bit=10]
c   73: input[bit=11]
c   75: input[bit=11]
c   80: input[bit=12]
c   82: input[bit=12]
c   87: input[bit=13]
c   89: input[bit=13]
c   94: input[bit=14]
c   96: input[bit=14]
c   101: input[bit=15]
c   103: input[bit=15]
c   108: input[bit=16]
c   110: input[bit=16]
c   115: input[bit=17]
c   117: input[bit=17]
c   122: input[bit=18]
c   124: input[bit=18]
c   129: input[bit=19]
c   131: input[bit=19]
c   136: input[bit=20]
c   138: input[bit=20]
c   143: input[bit=21]
c   145: input[bit=21]
c   150: input[bit=22]
c   152: input[bit=22]
c   157: input[bit=23]
c   159: input[bit=23]
c   164: input[bit=24]
c   166: input[bit=24]
c   171: input[bit=25]
c   173: input[bit=25]
c   178: input[bit=26]
c   180: input[bit=26]
c   185: input[bit=27]
c   187: input[bit=27]
c   192: input[bit=28]
c   194: input[bit=28]
c   199: input[bit=29]
c   201: input[bit=29]
c   206: input[bit=30]
c   208: input[bit=30]
c   213: input[bit=31]
c   215: input[bit=31]
c   219: ?
p cnf 219 436
-1 -2 3 0
1 -3 0
2 -3 0
2 -4 5 0
-2 -5 0
4 -5 0
3 5 -6 0
-3 6 0
-5 6 0
-6 -7 0
6 7 0
-8 -2 9 0
8 -9 0
2 -9 0
2 -10 11 0
-2 -11 0
10 -11 0
9 11 -12 0
-9 12 0
-11 12 0
-7 -12 13 0
7 -13 0
12 -13 0
-14 -2 15 0
14 -15 0
2 -15 0
2 -16 17 0
-2 -17 0
16 -17 0
15 17 -18 0
-15 18 0
-17 18 0
-13 -18 19 0
13 -19 0
18 -19 0
-20 -2 21 0
20 -21 0
2 -21 0
2 -22 23 0
-2 -23 0
22 -23 0
21 23 -24 0
-21 24 0
-23 24 0
-24 -25 0
24 25 0
-19 -25 26 0
19 -26 0
25 -26 0
-27 -2 28 0
27 -28 0
2 -28 0
2 -29 30 0
-2 -30 0
29 -30 0
28 30 -31 0
-28 31 0
-30 31 0
-26 -31 32 0
26 -32 0
31 -32 0
-33 -2 34 0
33 -34 0
2 -34 0
2 -35 36 0
-2 -36 0
35 -36 0
34 36 -37 0
-34 37 0
-36 37 0
-32 -37 38 0
32 -38 0
37 -38 0
-39 -2 40 0
39 -40 0
2 -40 0
2 -41 42 0
-2 -42 0
41 -42 0
40 42 -43 0
-40 43 0
-42 43 0
-38 -43 44 0
38 -44 0
43 -44 0
-45 -2 46 0
45 -46 0
2 -46 0
2 -47 48 0
-2 -48 0
47 -48 0
46 48 -49 0
-46 49 0
-48 49 0
-49 -50 0
49 50 0
-44 -50 51 0
44 -51 0
50 -51 0
-52 -2 53 0
52 -53 0
2 -53 0
2 -54 55 0
-2 -55 0
54 -55 0
53 55 -56 0
-53 56 0
-55 56 0
-56 -57 0
56 57 0
-51 -57 58 0
51 -58 0
57 -58 0
-59 -2 60 0
59 -60 0
2 -60 0
2 -61 62 0
-2 -62 0
61 -62 0
60 62 -63 0
-60 63 0
-62 63 0
-63 -64 0
63 64 0
-58 -64 65 0
58 -65 0
64 -65 0
-66 -2 67 0
66 -67 0
2 -67 0
2 -68 69 0
-2 -69 0
68 -69 0
67 69 -70 0
-67 70 0
-69 70 0
-70 -71 0
70 71 0
-65 -71 72 0
65 -72 0
71 -72 0
-73 -2 74 0
73 -74 0
2 -74 0
2 -75 76 0
-2 -76 0
75 -76 0
74 76 -77 0
-74 77 0
-76 77 0
-77 -78 0
77 78 0
-72 -78 79 0
72 -79 0
78 -79 0
-80 -2 81 0
80 -81 0
2 -81 0
2 -82 83 0
-2 -83 0
82 -83 0
81 83 -84 0
-81 84 0
-83 84 0
-84 -85 0
84 85 0
-79 -85 86 0
79 -86 0
85 -86 0
-87 -2 88 0
87 -88 0
2 -88 0
2 -89 90 0
-2 -90 0
89 -90 0
88 90 -91 0
-88 91 0
-90 91 0
-91 -92 0
91 92 0
-86 -92 93 0
86 -93 0
92 -93 0
-94 -2 95 0
94 -95 0
2 -95 0
2 -96 97 0
-2 -97 0
96 -97 0
95 97 -98 0
-95 98 0
-97 98 0
-98 -99 0
98 99 0
-93 -99 100 0
93 -100 0
99 -100 0
-101 -2 102 0
101 -102 0
2 -102 0
2 -103 104 0
-2 -104 0
103 -104 0
102 104 -105 0
-102 105 0
-104 105 0
-105 -106 0
105 106 0
-100 -106 107 0
100 -107 0
106 -107 0
-108 -2 109 0
108 -109 0
2 -109 0
2 -110 111 0
-2 -111 0
110 -111 0
109 111 -112 0
-109 112 0
-111 112 0
-112 -113 0
112 113 0
-107 -113 114 0
107 -114 0
113 -114 0
-115 -2 116 0
115 -116 0
2 -116 0
2 -117 118 0
-2 -118 0
117 -118 0
116 118 -119 0
-116 119 0
-118 119 0
-119 -120 0
119 120 0
-114 -120 121 0
114 -121 0
120 -121 0
-122 -2 123 0
122 -123 0
2 -123 0
2 -124 125 0
-2 -125 0
124 -125 0
123 125 -126 0
-123 126 0
-125 126 0
-126 -127 0
126 127 0
-121 -127 128 0
121 -128 0
127 -128 0
-129 -2 130 0
129 -130 0
2 -130 0
2 -131 132 0
-2 -132 0
131 -132 0
130 132 -133 0
-130 133 0
-132 133 0
-133 -134 0
133 134 0
-128 -134 135 0
128 -135 0
134 -135 0
-136 -2 137 0
136 -137 0
2 -137 0
2 -138 139 0
-2 -139 0
138 -139 0
137 139 -140 0
-137 140 0
-139 140 0
-140 -141 0
140 141 0
-135 -141 142 0
135 -142 0
141 -142 0
-143 -2 144 0
143 -144 0
2 -144 0
2 -145 146 0
-2 -146 0
145 -146 0
144 146 -147 0
-144 147 0
-146 147 0
-147 -148 0
147 148 0
-142 -148 149 0
142 -149 0
148 -149 0
-150 -2 151 0
150 -151 0
2 -151 0
2 -152 153 0
-2 -153 0
152 -153 0
151 153 -154 0
-151 154 0
-153 154 0
-154 -155 0
154 155 0
-149 -155 156 0
149 -156 0
155 -156 0
-157 -2 158 0
157 -158 0
2 -158 0
2 -159 160 0
-2 -160 0
159 -160 0
158 160 -161 0
-158 161 0
-160 161 0
-161 -162 0
161 162 0
-156 -162 163 0
156 -163 0
162 -163 0
-164 -2 165 0
164 -165 0
2 -165 0
2 -166 167 0
-2 -167 0
166 -167 0
165 167 -168 0
-165 168 0
-167 168 0
-168 -169 0
168 169 0
-163 -169 170 0
163 -170 0
169 -170 0
-171 -2 172 0
171 -172 0
2 -172 0
2 -173 174 0
-2 -174 0
173 -174 0
172 174 -175 0
-172 175 0
-174 175 0
-175 -176 0
175 176 0
-170 -176 177 0
170 -177 0
176 -177 0
-178 -2 179 0
178 -179 0
2 -179 0
2 -180 181 0
-2 -181 0
180 -181 0
179 181 -182 0
-179 182 0
-181 182 0
-182 -183 0
182 183 0
-177 -183 184 0
177 -184 0
183 -184 0
-185 -2 186 0
185 -186 0
2 -186 0
2 -187 188 0
-2 -188 0
187 -188 0
186 188 -189 0
-186 189 0
-188 189 0
-189 -190 0
189 190 0
-184 -190 191 0
184 -191 0
190 -191 0
-192 -2 193 0
192 -193 0
2 -193 0
2 -194 195 0
-2 -195 0
194 -195 0
193 195 -196 0
-193 196 0
-195 196 0
-196 -197 0
196 197 0
-191 -197 198 0
191 -198 0
197 -198 0
-199 -2 200 0
199 -200 0
2 -200 0
2 -201 202 0
-2 -202 0
201 -202 0
200 202 -203 0
-200 203 0
-202 203 0
-203 -204 0
203 204 0
-198 -204 205 0
198 -205 0
204 -205 0
-206 -2 207 0
206 -207 0
2 -207 0
2 -208 209 0
-2 -209 0
208 -209 0
207 209 -210 0
-207 210 0
-209 210 0
-210 -211 0
210 211 0
-205 -211 212 0
205 -212 0
211 -212 0
-213 -2 214 0
213 -214 0
2 -214 0
2 -215 216 0
-2 -216 0
215 -216 0
214 216 -217 0
-214 217 0
-216 217 0
-217 -218 0
217 218 0
-212 -218 219 0
212 -219 0
218 -219 0
219 0
